Route #1: 8 10 11 9 12 13 1 2 3 14 20 24 29 43 42 52 62 75 76 77 78 64 65 66 50 56 55 54 63 53 44 45 36 46 31 26 18 17 25 30 21 15 4 16 5 6 7 19 27 37 47 57 67 71 83 93 92 82 91 90 89 100 88 96 81 70 69 61 49 41 35 28 34 23 33 22 32 38 48 39 40 51 59 68 58 72 79 94 97 98 95 85 84 80 73 60 74 86 87 99
Cost 45280
